(set-logic ALL)
(set-option :produce-models true)
(declare-sort BoundSet 0)
(declare-sort UnboundSet 0)
(set-option :finite-model-find true)
(declare-fun SpentTimeOn (BoundSet BoundSet) Bool)
(declare-fun WorkedOn (BoundSet BoundSet) Bool)
(declare-fun MissedParties (BoundSet BoundSet) Bool)
(declare-fun InQuarter (BoundSet) Bool)
(declare-fun DeservesPassingGrade (BoundSet BoundSet) Bool)
(assert (not (=> (exists ((a BoundSet)) (exists ((e BoundSet)) (exists ((c BoundSet)) (exists ((b BoundSet)) (exists ((d BoundSet)) (and (SpentTimeOn a b) (and (WorkedOn a c) (and (MissedParties a d) (InQuarter e))))))))) (exists ((a BoundSet)) (exists ((f BoundSet)) (DeservesPassingGrade a f))))))
(check-sat)
(get-model)